p cnf 95 325
4 2 0
4 3 0
-2 -3 -4 0
-7 5 0
-7 6 0
-5 -6 7 0
4 -7 -8 0
-4 7 -8 0
4 7 8 0
-4 -7 8 0
-8 9 -10 0
8 -9 -10 0
-8 -9 10 0
8 9 10 0
-10 7 -11 0
10 -7 -11 0
-10 -7 11 0
10 7 11 0
-11 -1 -12 0
11 1 -12 0
-11 1 12 0
11 -1 12 0
14 2 0
14 -9 0
-2 9 -14 0
15 -13 0
15 -14 0
13 14 -15 0
15 -16 -17 0
-15 16 -17 0
15 16 17 0
-15 -16 17 0
-3 -17 -18 0
3 17 -18 0
-3 17 18 0
3 -17 18 0
19 -12 0
19 18 0
12 -18 -19 0
-20 -1 0
-20 19 0
1 -19 20 0
-21 14 0
-21 16 0
-14 -16 21 0
-23 -21 0
-23 -22 0
21 22 23 0
-24 -15 0
-24 -23 0
15 23 24 0
25 -20 0
25 -24 0
20 24 -25 0
26 2 0
26 9 0
-2 -9 -26 0
-26 -5 -27 0
26 5 -27 0
-26 5 27 0
26 -5 27 0
28 25 0
28 27 0
-25 -27 -28 0
29 -21 0
29 -6 0
21 6 -29 0
-30 -15 0
-30 26 0
15 -26 30 0
-31 -30 0
-31 10 0
30 -10 31 0
33 18 0
33 32 0
-18 -32 -33 0
-34 8 0
-34 -8 0
-35 33 0
-35 34 0
-33 -34 35 0
1 -35 -36 0
-1 35 -36 0
1 35 36 0
-1 -35 36 0
-37 -31 0
-37 -36 0
31 36 37 0
38 29 0
38 -37 0
-29 37 -38 0
-39 -4 -40 0
39 4 -40 0
-39 4 40 0
39 -4 40 0
-41 18 0
-41 -40 0
-18 40 41 0
42 -38 0
42 41 0
38 -41 -42 0
28 -42 -43 0
-28 42 -43 0
28 42 43 0
-28 -42 43 0
44 15 0
44 -9 0
-15 9 -44 0
-45 -14 0
-45 3 0
14 -3 45 0
4 -22 -46 0
-4 22 -46 0
4 22 46 0
-4 -22 46 0
-47 -15 0
-47 -17 0
15 17 47 0
48 -40 0
48 -22 0
40 22 -48 0
49 47 0
49 48 0
-47 -48 -49 0
50 46 0
50 -49 0
-46 49 -50 0
-10 40 -51 0
10 -40 -51 0
-10 -40 51 0
10 40 51 0
-52 -4 0
-52 32 0
4 -32 52 0
-51 52 -53 0
51 -52 -53 0
-51 -52 53 0
51 52 53 0
54 -50 0
54 53 0
50 -53 -54 0
55 45 0
55 -54 0
-45 54 -55 0
-56 44 0
-56 55 0
-44 -55 56 0
43 56 -57 0
-43 -56 -57 0
43 -56 57 0
-43 56 57 0
15 -39 -58 0
-15 39 -58 0
15 39 58 0
-15 -39 58 0
-59 -58 0
-59 -12 0
58 12 59 0
-6 2 -60 0
6 -2 -60 0
-6 -2 60 0
6 2 60 0
-62 40 0
-62 -61 0
-40 61 62 0
63 8 0
63 -11 0
-8 11 -63 0
-62 -63 -64 0
62 63 -64 0
-62 63 64 0
62 -63 64 0
-65 60 0
-65 -64 0
-60 64 65 0
-66 -39 0
-66 -39 0
39 66 0
67 7 0
67 66 0
-7 -66 -67 0
68 -65 0
68 67 0
65 -67 -68 0
59 -68 -69 0
-59 68 -69 0
59 68 69 0
-59 -68 69 0
-70 -57 0
-70 69 0
57 -69 70 0
-71 -5 0
-71 -7 0
5 7 71 0
-61 -14 -72 0
61 14 -72 0
-61 14 72 0
61 -14 72 0
73 -71 0
73 -72 0
71 72 -73 0
74 1 0
74 13 0
-1 -13 -74 0
75 9 -76 0
-75 -9 -76 0
75 -9 76 0
-75 9 76 0
76 39 -77 0
-76 -39 -77 0
76 -39 77 0
-76 39 77 0
-78 74 0
-78 77 0
-74 -77 78 0
73 78 -79 0
-73 -78 -79 0
73 -78 79 0
-73 78 79 0
21 71 -80 0
-21 -71 -80 0
21 -71 80 0
-21 71 80 0
-81 58 0
-81 -9 0
-58 9 81 0
-82 -80 0
-82 -81 0
80 81 82 0
84 83 0
84 51 0
-83 -51 -84 0
85 7 0
85 -16 0
-7 16 -85 0
26 -85 -86 0
-26 85 -86 0
26 85 86 0
-26 -85 86 0
-87 -22 0
-87 -86 0
22 86 87 0
-87 35 -88 0
87 -35 -88 0
-87 -35 88 0
87 35 88 0
-84 88 -89 0
84 -88 -89 0
-84 -88 89 0
84 88 89 0
90 -39 0
90 -21 0
39 21 -90 0
34 90 -91 0
-34 -90 -91 0
34 -90 91 0
-34 90 91 0
92 89 0
92 91 0
-89 -91 -92 0
-93 82 0
-93 -92 0
-82 92 93 0
79 93 -94 0
-79 -93 -94 0
79 -93 94 0
-79 93 94 0
-95 70 0
-95 94 0
-70 -94 95 0
31 -65 92 3 -20 0
-29 92 32 52 -89 0
4 -7 29 17 -9 0
82 67 81 0
35 -61 -95 -17 -30 -40 0
-45 -91 -51 62 0
-22 54 85 -70 0
19 -89 47 0
-70 -20 39 36 -10 0
-30 85 94 -17 0
-59 -83 0
1 21 -84 93 0
-16 -86 11 8 -32 -66 0
-17 -6 -11 25 0
83 58 0
-62 51 11 55 79 37 0
-66 -50 8 0
-20 28 -38 14 -68 0
-92 6 -58 -93 -19 0
-51 -72 -7 -24 0
52 50 76 -45 80 -67 0
-5 -70 23 0
-17 21 -87 0
-69 74 16 -78 0
85 9 -65 60 0
-8 -71 84 70 93 -9 0
56 43 21 -33 -5 41 0
-91 -23 62 0
95 -81 0
-55 13 -76 49 0
16 37 9 7 69 28 0
61 -39 54 78 0
39 -37 45 57 -46 33 0
-4 -35 22 64 0
56 -76 -80 -10 0
-55 91 0
-4 60 56 -27 0
-37 -77 -44 -79 0
-92 -73 -85 0
69 63 -37 23 25 -41 0
-24 -54 -2 -15 -1 0
33 22 30 -62 -68 0
-1 -88 -48 63 -72 0
36 -39 32 -85 -4 0
-54 -83 86 -84 10 0
39 21 73 -29 -70 0
-46 27 -43 80 64 18 0
14 89 88 -26 -10 0
-25 -23 93 45 -57 -55 0
-66 47 6 92 8 14 0
-83 6 92 0
19 -82 -11 -33 -80 0
-86 78 0
-12 3 -30 15 0
95 0
